100
547 125 281 431 17 499 953 429 835 961 21 14 437 960 455 798 672 46 466 644 160 133 668 301 691 278 77 375 788 349 546 774 278 867 42 451 242 171 900 167 781 472 946 886 17 952 559 727 106 719 722 965 596 40 655 666 130 809 37 588 623 947 168 219 677 484 919 160 660 214 932 368 416 511 930 841 625 319 628 881 466 149 790 989 298 53 324 193 648 504 847 197 640 585 129 496 212 23 392 377 
747 325 481 631 217 699 1153 629 1035 1161 221 214 637 1260 655 1098 972 246 666 844 360 333 868 501 891 478 277 575 988 549 846 1074 478 1067 342 651 442 371 1200 367 981 672 1146 1086 217 1152 759 927 306 919 922 1165 796 240 855 966 330 1009 237 888 823 1147 468 419 877 684 1119 360 960 414 1132 568 616 711 1230 1041 825 519 828 1081 666 349 990 1189 498 253 624 393 948 804 1047 397 840 785 329 696 412 223 592 577 
24282
